
Welcome to IBM(R) ILOG(R) CPLEX(R) Interactive Optimizer 22.1.1.0
  with Simplex, Mixed Integer & Barrier Optimizers
5725-A06 5725-A29 5724-Y48 5724-Y49 5724-Y54 5724-Y55 5655-Y21
Copyright IBM Corp. 1988, 2022.  All Rights Reserved.

Type 'help' for a list of available commands.
Type 'help' followed by a command name for more
information on commands.

CPLEX> Selected objective sense:  MINIMIZE
Selected objective  name:  00000000
Selected RHS        name:  RHS1
Selected bound      name:  BOUND
Problem 'ee.mps' read.
Read time = 0.03 sec. (3.14 ticks)
CPLEX> New value for time limit in seconds: 7200
CPLEX> New value for parallel optimization mode: -1
CPLEX> New value for default parallel thread count: 40
CPLEX> New value for mixed integer optimality gap tolerance: 1e-13
CPLEX> Version identifier: 22.1.1.0 | 2022-11-28 | 9160aff4d
CPXPARAM_Threads                                 40
CPXPARAM_Parallel                                -1
CPXPARAM_TimeLimit                               7200
CPXPARAM_MIP_Tolerances_MIPGap                   1e-13
Found incumbent of value 0.000000 after 0.00 sec. (0.31 ticks)
Tried aggregator 2 times.
MIP Presolve eliminated 181 rows and 2745 columns.
MIP Presolve modified 5862 coefficients.
Aggregator did 713 substitutions.
Reduced MIP has 3623 rows, 7739 columns, and 28643 nonzeros.
Reduced MIP has 7739 binaries, 0 generals, 0 SOSs, and 0 indicators.
Presolve time = 0.07 sec. (68.55 ticks)
Probing time = 0.03 sec. (5.29 ticks)
Tried aggregator 1 time.
Detecting symmetries...
Reduced MIP has 3623 rows, 7739 columns, and 28643 nonzeros.
Reduced MIP has 7739 binaries, 0 generals, 0 SOSs, and 0 indicators.
Presolve time = 0.02 sec. (21.83 ticks)
Probing time = 0.02 sec. (5.11 ticks)
Clique table members: 18551.
MIP emphasis: balance optimality and feasibility.
MIP search method: dynamic search.
Parallel mode: opportunistic, using up to 40 threads.
Root relaxation solution time = 0.11 sec. (93.24 ticks)

        Nodes                                         Cuts/
   Node  Left     Objective  IInf  Best Integer    Best Bound    ItCnt     Gap

*     0+    0                            0.0000  -1.31000e+13              --- 
*     0+    0                      -6.60000e+12  -1.31000e+13            98.48%
      0     0  -1.30900e+13    25  -6.60000e+12  -1.30900e+13     1957   98.33%
*     0+    0                      -1.30900e+13  -1.30900e+13             0.00%
      0     0  -1.30900e+13   118  -1.30900e+13      Cuts: 45     2249    0.00%
*     0+    0                      -1.30900e+13  -1.30900e+13             0.00%
      0     0  -1.30900e+13   166  -1.30900e+13      Cuts: 70     2615    0.00%
*     0+    0                      -1.30900e+13  -1.30900e+13             0.00%
*     0+    0                      -1.30900e+13  -1.30900e+13             0.00%

Repeating presolve.
Tried aggregator 3 times.
MIP Presolve eliminated 1625 rows and 3853 columns.
MIP Presolve modified 146 coefficients.
Aggregator did 387 substitutions.
Reduced MIP has 1611 rows, 3465 columns, and 12196 nonzeros.
Reduced MIP has 3465 binaries, 0 generals, 0 SOSs, and 0 indicators.
Presolve time = 0.08 sec. (84.15 ticks)
Probing time = 0.04 sec. (11.15 ticks)
Tried aggregator 1 time.
Detecting symmetries...
MIP Presolve eliminated 7 rows and 5 columns.
Reduced MIP has 1604 rows, 3459 columns, and 12172 nonzeros.
Reduced MIP has 3459 binaries, 0 generals, 0 SOSs, and 0 indicators.
Presolve time = 0.02 sec. (13.69 ticks)
Represolve time = 0.15 sec. (122.04 ticks)
Probing time = 0.03 sec. (11.14 ticks)
Clique table members: 8209.
MIP emphasis: balance optimality and feasibility.
MIP search method: dynamic search.
Parallel mode: opportunistic, using up to 40 threads.
Root relaxation solution time = 0.05 sec. (48.36 ticks)

        Nodes                                         Cuts/
   Node  Left     Objective  IInf  Best Integer    Best Bound    ItCnt     Gap

*     0+    0                      -1.30900e+13  -1.30900e+13             0.00%
      0     0  -1.30900e+13   116  -1.30900e+13  -1.30900e+13     4225    0.00%
      0     0  -1.30900e+13   126  -1.30900e+13      Cuts: 77     4481    0.00%
      0     0  -1.30900e+13   160  -1.30900e+13      Cuts: 45     4604    0.00%
      0     2  -1.30900e+13   150  -1.30900e+13  -1.30900e+13     4604    0.00%
Elapsed time = 1.78 sec. (1104.84 ticks, tree = 0.02 MB, solutions = 6)
*   536   114      integral     0  -1.30900e+13  -1.30900e+13    37550    0.00%
   1397   359        cutoff        -1.30900e+13  -1.30900e+13   106063    0.00%
*  2118   325      integral     0  -1.30900e+13  -1.30900e+13   128643    0.00%
   3612   310  -1.30900e+13    74  -1.30900e+13  -1.30900e+13   165238    0.00%
   6489   336        cutoff        -1.30900e+13  -1.30900e+13   205664    0.00%
   8853   232  -1.30900e+13    70  -1.30900e+13  -1.30900e+13   431167    0.00%
  10529   456    infeasible        -1.30900e+13  -1.30900e+13   323631    0.00%
  11700   392  -1.30900e+13    24  -1.30900e+13  -1.30900e+13   412237    0.00%

Performing restart 1

Repeating presolve.
Tried aggregator 2 times.
MIP Presolve eliminated 12 rows and 157 columns.
MIP Presolve modified 828 coefficients.
Aggregator did 7 substitutions.
Reduced MIP has 1585 rows, 3295 columns, and 11657 nonzeros.
Reduced MIP has 3295 binaries, 0 generals, 0 SOSs, and 0 indicators.
Presolve time = 0.03 sec. (25.61 ticks)
Tried aggregator 1 time.
MIP Presolve eliminated 3 rows and 2 columns.
Reduced MIP has 1582 rows, 3293 columns, and 11646 nonzeros.
Reduced MIP has 3293 binaries, 0 generals, 0 SOSs, and 0 indicators.
Presolve time = 0.02 sec. (13.81 ticks)
Represolve time = 0.10 sec. (71.20 ticks)
  11980     0  -1.30900e+13   217  -1.30900e+13      Cuts: 24   489701    0.00%
  11980     0  -1.30900e+13   196  -1.30900e+13      Cuts: 28   489842    0.00%
  11980     0  -1.30900e+13   193  -1.30900e+13      Cuts: 15   489972    0.00%
  11980     0  -1.30900e+13   165  -1.30900e+13      Cuts: 13   490026    0.00%
  11980     0  -1.30900e+13   215  -1.30900e+13      Cuts: 26   490161    0.00%
  11980     0  -1.30900e+13   230  -1.30900e+13      Cuts: 15   490227    0.00%
  11980     0  -1.30900e+13   288  -1.30900e+13      Cuts: 23   490314    0.00%
  11980     0  -1.30900e+13   248  -1.30900e+13      Cuts: 25   490404    0.00%
  11980     0  -1.30900e+13   274  -1.30900e+13      Cuts: 29   490533    0.00%
  11980     0  -1.30900e+13   328  -1.30900e+13      Cuts: 22   490659    0.00%
  11980     0  -1.30900e+13   192  -1.30900e+13      Cuts: 25   490757    0.00%
  11980     0  -1.30900e+13   300  -1.30900e+13      Cuts: 21   490835    0.00%
  11980     0  -1.30900e+13   290  -1.30900e+13      Cuts: 16   490926    0.00%
  11980     0  -1.30900e+13   260  -1.30900e+13      Cuts: 26   490992    0.00%
  11980     0  -1.30900e+13   316  -1.30900e+13      Cuts: 23   491171    0.00%
  11980     0  -1.30900e+13   319  -1.30900e+13      Cuts: 43   491276    0.00%
  11980     3        cutoff        -1.30900e+13  -1.30900e+13   491653    0.00%
  12084     3  -1.30900e+13   220  -1.30900e+13  -1.30900e+13   491786    0.00%
  12099     4  -1.30900e+13   176  -1.30900e+13  -1.30900e+13   491740    0.00%

Clique cuts applied:  15
Cover cuts applied:  181
Flow cuts applied:  2
Mixed integer rounding cuts applied:  9
Zero-half cuts applied:  64
Lift and project cuts applied:  5
Gomory fractional cuts applied:  10

Root node processing (before b&c):
  Real time             =    1.39 sec. (1104.45 ticks)
Parallel b&c, 40 threads:
  Real time             =    6.92 sec. (4219.03 ticks)
  Sync time (average)   =    2.72 sec.
  Wait time (average)   =    0.09 sec.
                          ------------
Total (root+branch&cut) =    8.31 sec. (5323.47 ticks)

Solution pool: 12 solutions saved.

MIP - Integer optimal solution:  Objective = -1.3089999989e+13
Solution time =    8.39 sec.  Iterations = 494717  Nodes = 12118
Deterministic time = 5323.50 ticks  (634.51 ticks/sec)

CPLEX> Solution 'p13' written to file 'ee.sol'.
CPLEX> 